p cnf 7230 17
506 -1511 0
506 -1513 0
-506 -923 1509 0
506 -1515 0
-506 -921 1510 0
-506 -919 1512 0
-506 -931 1514 0
-1510 1511 0
931 -1515 0
-1512 1513 0
919 -1513 0
921 -1511 0
-1514 1515 0
1508 -1509 0
1234 -1517 0
-1508 1509 0
506 -1517 0
